Solver command line: []

Read LP format model from file C:\Users\wlhlm\AppData\Local\Temp\tmp6t12ea9g.pyomo.lp
Reading time = 2.40 seconds
objective: 979392 rows, 878399 columns, 2217918 nonzeros
Set parameter MIPGap to value 0.02
Gurobi Optimizer version 12.0.1 build v12.0.1rc0 (win64 - Windows 11.0 (26100.2))

CPU model: Intel(R) Core(TM) Ultra 7 258V, instruction set [SSE2|AVX|AVX2]
Thread count: 8 physical cores, 8 logical processors, using up to 8 threads

Non-default parameters:
MIPGap  0.02

Optimize a model with 979392 rows, 878399 columns and 2217918 nonzeros
Model fingerprint: 0x18c5f5ba
Model has 8783 quadratic constraints
Variable types: 755424 continuous, 122975 integer (105408 binary)
Coefficient statistics:
  Matrix range     [7e-03, 2e+02]
  QMatrix range    [1e+00, 1e+00]
  Objective range  [1e-02, 4e+02]
  Bounds range     [1e+00, 3e+00]
  RHS range        [8e-05, 1e+04]
Presolve removed 776756 rows and 649398 columns
Presolve time: 0.55s
Presolved: 202636 rows, 229001 columns, 631058 nonzeros
Variable types: 154391 continuous, 74610 integer (65826 binary)
Performing another presolve...
Presolve removed 70282 rows and 70283 columns (presolve time = 7s)...
Presolve removed 70282 rows and 70283 columns
Presolve time: 7.27s
Deterministic concurrent LP optimizer: primal and dual simplex
Showing primal log only...


Root simplex log...

Iteration    Objective       Primal Inf.    Dual Inf.      Time
       0    7.0209774e+07   2.656051e+06   4.377872e+13      9s
   18636    6.7713269e+07   7.992891e+05   2.163025e+13     10s
Concurrent spin time: 0.00s

Solved with dual simplex

Root simplex log...

Iteration    Objective       Primal Inf.    Dual Inf.      Time
   67296    6.3762641e+07   0.000000e+00   0.000000e+00     13s

Root relaxation: objective 6.376264e+07, 67296 iterations, 4.46 seconds (4.28 work units)
Total elapsed time = 13.17s (DegenMoves)

    Nodes    |    Current Node    |     Objective Bounds      |     Work
 Expl Unexpl |  Obj  Depth IntInf | Incumbent    BestBd   Gap | It/Node Time

     0     0 6.3763e+07    0  437          - 6.3763e+07      -     -   15s
H    0     0                    6.379926e+07 6.3763e+07  0.06%     -   16s

Explored 1 nodes (72925 simplex iterations) in 16.60 seconds (19.59 work units)
Thread count was 8 (of 8 available processors)

Solution count 1: 6.37993e+07 

Optimal solution found (tolerance 2.00e-02)
Best objective 6.379925595725e+07, best bound 6.376264093971e+07, gap 0.0574%

